NAME : KROA149A.30833.tour
COMMENT : Cost = 0_30833
COMMENT : Found by LKH [Keld Helsgaun] Sun Sep 17 16:52:43 2017
TYPE : TOUR
DIMENSION : 149
TOUR_SECTION
1
63
6
49
113
10
84
90
106
19
75
97
56
142
119
118
124
26
128
70
66
65
4
53
133
79
136
88
16
22
94
18
38
24
111
102
99
104
36
126
59
140
74
21
72
11
17
15
45
91
109
32
47
93
28
141
105
67
108
58
61
69
81
25
51
87
9
117
7
57
144
139
134
131
112
29
46
120
115
123
43
127
135
3
14
71
41
100
48
52
78
96
101
121
30
107
39
146
5
37
103
145
33
76
95
13
125
82
116
50
44
2
54
40
64
143
114
73
68
85
34
83
55
148
27
35
86
12
20
149
62
60
77
110
23
98
130
92
8
138
80
31
122
42
89
137
132
147
129
-1
EOF
